challenge2023/mznc2023_probs/evm-super-compilation/BDARUMA_run_code_of_0_block_108_233_1_extended_input.dzn
TERM = { '.', s0, s1, s15, s16, s17, s18, s19, s2, s22, s23, s24, s25, s26, s3, s4, s5, s6, s7, s8, s9, s28, s29, s30, s31, s32, s33};
null = '.';
s = 40;
n = 20;
ZEROARYOP = { CALLER_0 };
zeroout = [ s25 ];
zerogas = [ 2 ];
zerosz = [ 1 ];
zerolb = [ 1 ];
zeroub = [ 32 ];
UNARYOP = { SLOAD_0, ISZERO_0 };
unin = [ s17, s16 ];
unout = [ s18, s19 ];
ungas = [ 700, 3 ];
unsz = [ 1, 1 ];
unlb = [ 24, 26 ];
unub = [ 36, 39 ];
BINARYOP = { GT_0, KECCAK256_0, AND_0, SUB_0, SHL_0, KECCAK256_1 };
binin1 = [s1, s28, s9, s24, s31, s28 ];
binin2 = [s18, s29, s23, s30, s30, s29 ];
binout = [s16, s17, s22, s23, s24, s26 ];
bincomm = [false, false, true, false, false, false ];
bingas = [3, 30, 3, 3, 3, 30 ];
binsz = [1, 1, 1, 1, 1, 1 ];
binlb = [ 25, 23, 6, 5, 3, 14 ];
binub = [ 38, 35, 29, 28, 27, 32 ];
PUSHOP = { 'PUSH [tag]_0', PUSH_0, PUSH_1, PUSH_2, PUSH_3, PUSH_4, PUSH_5 };
pushout = [ s15, s28, s29, s30, s31, s32, s33 ];
pushgas = [ 3, 3, 3, 3, 3, 3, 3 ];
pushsz = [ 5, 2, 2, 2, 2, 2, 2 ];
pushlb = [ 1, 1, 1, 1, 1, 1, 1 ];
pushub = [ 40, 39, 33, 27, 27, 33, 30 ];
STOROP = { MSTORE_0, MSTORE_1, MSTORE_2, MSTORE_3 };
storin1 = [s28, s32, s28, s32 ];
storin2 = [s22, s33, s25, s26 ];
storlb = [ 8, 3, 17, 16 ];
storub = [ 31, 31, 34, 34 ];
startstack = [ s0, s1, s2, s3, s4, s5, s6, s7, s8, s9 ];
endstack = [ s15, s19, s0, s28, s0, s1, s18, s2, s3, s4, s5, s6, s7, s8, s9 ];
before = [ S(MSTORE_3), S(MSTORE_2), S(MSTORE_1), S(MSTORE_0), B(KECCAK256_1), B(KECCAK256_1) ];
after = [ B(KECCAK256_0), B(KECCAK256_0), B(KECCAK256_1), B(KECCAK256_1), S(MSTORE_2), S(MSTORE_3) ];
